1 1 2 0
1 -1 -3 0
1 1 4 0
1 -5 6 0
1 5 7 0
1 -5 -2 0
1 5 -1 0
1 5 3 0
1 8 -9 0
1 -8 10 0
1 8 -7 0
1 8 2 0
1 8 -11 0
1 -12 7 0
1 -12 -2 0
1 -12 -13 0
1 -2 -14 0
1 2 15 0
1 -2 16 0
1 2 17 0
1 -2 18 0
1 19 -20 0
1 -19 14 0
1 -19 -12 0
1 -19 2 0
1 -19 -16 0
1 19 1 0
1 -7 14 0
1 -7 21 0
1 7 -22 0
1 7 -16 0
1 3 -7 0
1 -3 -23 0
1 -18 10 0
1 -24 25 0
1 -24 -26 0
1 24 18 0
1 -17 9 0
1 -17 2 0
1 17 -27 0
1 17 -28 0
1 17 -29 0
1 -30 -9 0
1 30 10 0
1 30 -31 0
1 -30 21 0
1 30 -32 0
1 -30 2 0
1 30 -13 0
1 30 -27 0
1 30 -29 0
1 13 -33 0
1 -13 -10 0
1 -13 -24 0
1 13 -12 0
1 -13 34 0
1 -13 35 0
1 13 17 0
1 -10 -33 0
1 10 -8 0
1 -10 36 0
1 -26 -9 0
1 26 -14 0
1 -26 -24 0
1 -26 37 0
1 26 16 0
1 26 -18 0
1 -26 -8 0
1 9 38 0
1 -9 14 0
1 -9 -24 0
1 -9 -12 0
1 9 34 0
1 -9 26 0
1 -9 -39 0
1 -9 -16 0
1 9 8 0
1 -35 -33 0
1 -35 10 0
1 35 -13 0
1 -35 -16 0
1 -35 -27 0
1 35 -29 0
1 33 10 0
1 -33 -31 0
1 -33 35 0
1 40 -10 0
1 -40 -32 0
1 -40 -13 0
1 40 -29 0
1 41 -32 0
1 41 40 0
1 29 -41 0
1 29 42 0
1 -29 17 0
1 -32 -42 0
1 -32 -40 0
1 32 29 0
1 -32 43 0
1 -27 -34 0
1 27 35 0
1 -27 -43 0
1 -27 44 0
1 -31 -41 0
1 31 -30 0
1 -31 34 0
1 31 -35 0
1 -31 -17 0
1 -31 27 0
1 31 -43 0
1 -31 -36 0
1 4 -45 0
1 -4 6 0
1 6 5 0
1 -6 -46 0
1 6 47 0
1 11 -48 0
1 11 -47 0
1 11 8 0
1 -48 12 0
1 -48 -49 0
1 48 50 0
1 51 -52 0
1 -51 25 0
1 -51 -48 0
1 -51 28 0
1 47 -25 0
1 -47 -6 0
1 -47 53 0
1 -47 54 0
1 -47 28 0
1 -47 23 0
1 47 4 0
1 45 -55 0
1 45 56 0
1 -45 -48 0
1 45 -46 0
1 45 57 0
1 45 58 0
1 46 -59 0
1 -46 -48 0
1 -46 54 0
1 -46 4 0
1 23 60 0
1 23 50 0
1 25 -51 0
1 -25 -61 0
1 25 7 0
1 25 50 0
1 25 -23 0
1 -25 3 0
1 -28 -21 0
1 -28 -50 0
1 -28 17 0
1 -28 62 0
1 21 51 0
1 -21 60 0
1 21 -61 0
1 21 -63 0
1 21 -64 0
1 -21 -47 0
1 21 65 0
1 21 3 0
1 61 -66 0
1 61 67 0
1 61 21 0
1 -61 -68 0
1 -61 -28 0
1 61 11 0
1 67 -14 0
1 -67 -61 0
1 -67 -39 0
1 -67 16 0
1 -60 -66 0
1 -60 -69 0
1 -60 -70 0
1 60 25 0
1 60 -71 0
1 -60 -50 0
1 60 54 0
1 -60 28 0
1 60 -23 0
1 -50 -69 0
1 50 21 0
1 -50 -25 0
1 50 -48 0
1 50 -68 0
1 -50 54 0
1 -50 28 0
1 50 23 0
1 -50 11 0
1 -16 -9 0
1 16 -67 0
1 16 3 0
1 -16 19 0
1 14 9 0
1 14 -69 0
1 -14 -63 0
1 -14 64 0
1 -14 -2 0
1 14 16 0
1 14 -62 0
1 -39 72 0
1 -39 -61 0
1 -39 -71 0
1 -39 -65 0
1 -39 73 0
1 72 61 0
1 -72 -63 0
1 72 -64 0
1 -72 26 0
1 72 39 0
1 72 67 0
1 72 65 0
1 -72 -73 0
1 -64 -72 0
1 64 74 0
1 64 75 0
1 -64 -39 0
1 -64 -76 0
1 -65 -14 0
1 -65 -21 0
1 65 -64 0
1 -65 -77 0
1 65 -39 0
1 65 -16 0
1 -63 14 0
1 -63 21 0
1 63 -68 0
1 63 -28 0
1 62 -72 0
1 62 -14 0
1 -62 -63 0
1 -62 -16 0
1 62 76 0
1 -34 -10 0
1 -34 -31 0
1 -34 -64 0
1 34 22 0
1 34 -36 0
1 36 -64 0
1 36 22 0
1 -36 34 0
1 36 27 0
1 -74 20 0
1 74 -38 0
1 -74 78 0
1 -74 -15 0
1 74 -44 0
1 -44 -38 0
1 -44 -79 0
1 -44 -31 0
1 -44 64 0
1 44 -74 0
1 -44 22 0
1 -44 15 0
1 44 -80 0
1 -44 -27 0
1 15 20 0
1 -15 81 0
1 15 -42 0
1 -15 74 0
1 15 -39 0
1 15 82 0
1 20 81 0
1 -20 19 0
1 20 83 0
1 -22 72 0
1 -22 84 0
1 -22 39 0
1 22 73 0
1 73 -22 0
1 73 3 0
1 73 -85 0
1 -73 -86 0
1 42 38 0
1 42 31 0
1 42 15 0
1 -42 43 0
1 -43 38 0
1 43 31 0
1 43 37 0
1 -43 -27 0
1 -43 -29 0
1 -81 -20 0
1 -81 -38 0
1 81 -79 0
1 81 87 0
1 -81 -88 0
1 81 80 0
1 -81 -89 0
1 83 79 0
1 83 -90 0
1 -83 -81 0
1 -83 -91 0
1 80 92 0
1 -80 81 0
1 80 74 0
1 80 -13 0
1 80 93 0
1 -80 -83 0
1 80 -44 0
1 -79 -10 0
1 79 94 0
1 -79 95 0
1 -79 -81 0
1 79 -83 0
1 79 43 0
1 -79 44 0
1 -37 -81 0
1 -37 96 0
1 37 82 0
1 37 44 0
1 38 -9 0
1 38 -97 0
1 38 -94 0
1 38 -74 0
1 -38 -37 0
1 38 98 0
1 -99 100 0
1 100 -90 0
1 100 89 0
1 100 -82 0
1 100 -91 0
1 92 80 0
1 -92 89 0
1 93 90 0
1 -93 -87 0
1 -93 98 0
1 93 -91 0
1 -91 -92 0
1 91 101 0
1 91 -102 0
1 87 -103 0
1 87 92 0
1 87 -99 0
1 87 81 0
1 -87 83 0
1 87 -91 0
1 -89 -104 0
1 89 94 0
1 89 -81 0
1 -89 101 0
1 -89 -105 0
1 -89 -93 0
1 -89 100 0
1 90 103 0
1 90 -92 0
1 90 106 0
1 90 81 0
1 90 -105 0
1 -90 -89 0
1 -107 108 0
1 -107 109 0
1 -110 108 0
1 110 -111 0
1 -110 -112 0
1 -110 107 0
1 113 -108 0
1 -113 111 0
1 113 114 0
1 113 -49 0
1 -113 109 0
1 113 115 0
1 -113 11 0
1 49 -116 0
1 49 109 0
1 -49 115 0
1 -109 59 0
1 -109 -111 0
1 -109 -56 0
1 109 -49 0
1 -109 117 0
1 111 118 0
1 111 -56 0
1 -111 49 0
1 -111 -58 0
1 -112 119 0
1 112 108 0
1 112 -107 0
1 -108 -112 0
1 -108 -113 0
1 -108 107 0
1 58 45 0
1 58 111 0
1 58 -109 0
1 -56 -25 0
1 -57 45 0
1 57 -111 0
1 -57 -46 0
1 -57 -120 0
1 59 -109 0
1 59 -115 0
1 -59 -120 0
1 59 121 0
1 120 122 0
1 120 123 0
1 120 -59 0
1 120 -56 0
1 120 -57 0
1 120 58 0
1 120 -113 0
1 116 69 0
1 116 -59 0
1 116 124 0
1 -116 -57 0
1 -116 -113 0
1 -115 -114 0
1 115 125 0
1 -115 113 0
1 114 -122 0
1 114 56 0
1 114 -49 0
1 114 -126 0
1 -114 113 0
1 -54 50 0
1 -54 -16 0
1 -54 120 0
1 -54 -121 0
1 69 -127 0
1 -69 60 0
1 69 -116 0
1 69 128 0
1 -69 -121 0
1 71 -128 0
1 71 129 0
1 -71 121 0
1 123 -55 0
1 123 -60 0
1 123 128 0
1 -123 120 0
1 -123 121 0
1 -127 66 0
1 -127 130 0
1 -127 59 0
1 -127 131 0
1 127 -78 0
1 127 68 0
1 127 -132 0
1 -127 -133 0
1 128 69 0
1 128 78 0
1 128 68 0
1 -128 132 0
1 -121 -122 0
1 -121 -69 0
1 121 -134 0
1 -121 -135 0
1 121 -131 0
1 -121 -126 0
1 121 54 0
1 -121 -57 0
1 135 123 0
1 135 136 0
1 -135 137 0
1 -135 126 0
1 135 -132 0
1 -68 66 0
1 -68 61 0
1 -68 -63 0
1 -68 128 0
1 -68 -34 0
1 -68 129 0
1 68 -67 0
1 68 62 0
1 -66 127 0
1 -66 -52 0
1 -66 60 0
1 66 -61 0
1 66 -63 0
1 66 -53 0
1 -66 50 0
1 -66 -36 0
1 78 55 0
1 78 52 0
1 78 138 0
1 -78 63 0
1 -78 74 0
1 -78 -137 0
1 -78 62 0
1 -133 128 0
1 -133 53 0
1 133 -44 0
1 133 -139 0
1 52 123 0
1 -52 -71 0
1 -52 -76 0
1 52 -133 0
1 -53 123 0
1 53 140 0
1 -53 141 0
1 53 -47 0
1 53 -142 0
1 53 -85 0
1 55 -66 0
1 -55 45 0
1 -55 -123 0
1 -55 140 0
1 -55 -143 0
1 55 131 0
1 -55 78 0
1 55 -71 0
1 55 -132 0
1 129 -140 0
1 -129 -46 0
1 129 142 0
1 129 144 0
1 129 132 0
1 -141 52 0
1 141 -138 0
1 141 -63 0
1 141 -131 0
1 141 22 0
1 141 -145 0
1 -141 -62 0
1 -141 -76 0
1 -76 63 0
1 76 22 0
1 -76 145 0
1 76 -62 0
1 -76 132 0
1 76 73 0
1 -88 146 0
1 -88 70 0
1 -88 -85 0
1 -88 73 0
1 85 -52 0
1 -85 -138 0
1 -85 88 0
1 -85 22 0
1 -85 53 0
1 -85 145 0
1 85 83 0
1 85 144 0
1 -138 147 0
1 -138 84 0
1 138 -148 0
1 138 -88 0
1 -138 141 0
1 -138 -85 0
1 138 76 0
1 -145 -147 0
1 -145 -149 0
1 145 -141 0
1 145 -78 0
1 145 -85 0
1 145 -133 0
1 70 -150 0
1 -70 140 0
1 70 141 0
1 -70 76 0
1 -151 147 0
1 -151 70 0
1 151 -140 0
1 -151 -78 0
1 151 -152 0
1 -151 -76 0
1 -84 -38 0
1 -84 -145 0
1 84 -140 0
1 -84 -37 0
1 84 82 0
1 84 146 0
1 84 -73 0
1 -82 84 0
1 -82 153 0
1 82 15 0
1 82 37 0
1 149 -154 0
1 149 -92 0
1 -149 155 0
1 149 153 0
1 -149 75 0
1 -149 156 0
1 149 145 0
1 149 -146 0
1 -149 77 0
1 98 153 0
1 98 75 0
1 -98 156 0
1 98 -157 0
1 -98 77 0
1 -75 94 0
1 75 -88 0
1 -75 -158 0
1 75 -159 0
1 -75 -105 0
1 75 -98 0
1 75 85 0
1 77 149 0
1 77 84 0
1 -77 -88 0
1 -77 75 0
1 77 -160 0
1 -77 -98 0
1 -77 82 0
1 -77 161 0
1 -153 162 0
1 -153 147 0
1 -153 84 0
1 153 -88 0
1 -146 -149 0
1 -146 88 0
1 146 -159 0
1 146 -163 0
1 146 98 0
1 -146 -82 0
1 -146 -164 0
1 -94 -79 0
1 94 147 0
1 94 90 0
1 94 165 0
1 94 156 0
1 94 -160 0
1 160 -154 0
1 -160 -38 0
1 160 79 0
1 -160 37 0
1 160 -89 0
1 160 -77 0
1 -160 -86 0
1 -104 -154 0
1 -104 166 0
1 104 -95 0
1 -104 -90 0
1 -104 89 0
1 -104 77 0
1 105 -154 0
1 105 -95 0
1 -105 -75 0
1 -105 -165 0
1 -105 156 0
1 105 -167 0
1 105 86 0
1 156 -104 0
1 156 94 0
1 -156 168 0
1 -156 -101 0
1 -156 15 0
1 156 -160 0
1 156 -98 0
1 156 169 0
1 -156 170 0
1 -154 -103 0
1 -154 104 0
1 -154 -94 0
1 154 168 0
1 -154 101 0
1 154 98 0
1 154 -169 0
1 154 -170 0
1 165 162 0
1 165 104 0
1 165 -94 0
1 165 -149 0
1 -165 171 0
1 165 172 0
1 -165 105 0
1 165 -98 0
1 -165 169 0
1 -165 86 0
1 -165 173 0
1 -86 -162 0
1 86 -94 0
1 86 -172 0
1 86 -165 0
1 86 169 0
1 -103 -97 0
1 -103 95 0
1 103 -101 0
1 103 -156 0
1 -103 89 0
1 -101 -97 0
1 101 95 0
1 101 -96 0
1 170 -95 0
1 170 156 0
1 -170 173 0
1 168 -154 0
1 168 -95 0
1 168 106 0
1 168 -167 0
1 168 174 0
1 168 170 0
1 -167 -104 0
1 167 175 0
1 167 -168 0
1 -167 101 0
1 -167 105 0
1 167 -170 0
1 -95 103 0
1 -95 104 0
1 -95 -176 0
1 95 -105 0
1 95 177 0
1 -95 -170 0
1 -96 -178 0
1 96 -168 0
1 96 -37 0
1 97 -104 0
1 -97 178 0
1 -97 -171 0
1 97 96 0
1 179 -95 0
1 179 -106 0
1 -179 175 0
1 -179 167 0
1 -179 169 0
1 175 180 0
1 175 167 0
1 175 -174 0
1 -177 -180 0
1 -177 -174 0
1 -176 95 0
1 -176 -178 0
1 -176 -177 0
1 102 -177 0
1 102 179 0
1 180 -176 0
1 180 175 0
1 180 -170 0
1 -174 176 0
1 -174 -179 0
1 174 -170 0
1 106 90 0
1 106 175 0
1 106 168 0
1 106 177 0
1 -106 170 0
1 126 122 0
1 -126 118 0
1 126 114 0
1 126 116 0
1 -126 135 0
1 126 -120 0
1 122 181 0
1 -122 -118 0
1 122 -114 0
1 -122 116 0
1 122 -126 0
1 -122 121 0
1 137 181 0
1 -137 124 0
1 -137 -135 0
1 137 -78 0
1 137 -117 0
1 137 -121 0
1 -139 181 0
1 -139 -118 0
1 -139 182 0
1 139 119 0
1 139 -117 0
1 -117 -118 0
1 117 -126 0
1 117 -144 0
1 -117 132 0
1 -117 -139 0
1 -118 -131 0
1 118 -137 0
1 118 -126 0
1 -118 117 0
1 118 132 0
1 -119 -126 0
1 -119 -139 0
1 181 183 0
1 181 139 0
1 131 -124 0
1 131 117 0
1 131 125 0
1 -131 184 0
1 131 -132 0
1 132 127 0
1 -132 121 0
1 132 -135 0
1 -132 131 0
1 -132 128 0
1 132 129 0
1 132 125 0
1 132 -76 0
1 -143 55 0
1 -143 182 0
1 -143 124 0
1 -143 185 0
1 143 -144 0
1 143 -184 0
1 -143 134 0
1 144 55 0
1 -144 -182 0
1 -144 136 0
1 -144 -129 0
1 144 117 0
1 -184 155 0
1 -184 186 0
1 184 -157 0
1 184 -142 0
1 -184 144 0
1 -184 -132 0
1 184 -139 0
1 -124 187 0
1 124 -155 0
1 -124 -188 0
1 124 137 0
1 -124 186 0
1 124 -157 0
1 125 187 0
1 -125 -115 0
1 -125 -186 0
1 125 -144 0
1 125 189 0
1 125 132 0
1 125 -139 0
1 182 187 0
1 -182 -114 0
1 -182 -137 0
1 182 -144 0
1 -140 -55 0
1 140 84 0
1 -140 124 0
1 -140 136 0
1 140 185 0
1 -140 53 0
1 140 -184 0
1 142 140 0
1 -142 124 0
1 142 151 0
1 142 184 0
1 155 -190 0
1 155 -124 0
1 -155 185 0
1 -155 151 0
1 -155 134 0
1 -157 130 0
1 -157 190 0
1 -157 155 0
1 157 124 0
1 -157 -191 0
1 157 -151 0
1 -157 -98 0
1 -157 134 0
1 -130 127 0
1 130 -192 0
1 -130 -155 0
1 130 -140 0
1 130 -143 0
1 -130 193 0
1 -130 163 0
1 -130 -152 0
1 185 130 0
1 -185 -155 0
1 185 -128 0
1 -185 163 0
1 -185 -194 0
1 185 157 0
1 134 -195 0
1 -134 196 0
1 -134 -187 0
1 -134 193 0
1 134 -186 0
1 -134 144 0
1 -134 -121 0
1 136 -197 0
1 -136 187 0
1 -136 140 0
1 136 -135 0
1 -136 -198 0
1 -136 193 0
1 136 -157 0
1 136 142 0
1 147 -130 0
1 147 190 0
1 -147 -70 0
1 147 -199 0
1 -147 185 0
1 147 -152 0
1 -147 146 0
1 -152 70 0
1 152 -153 0
1 -152 -186 0
1 -152 151 0
1 152 -191 0
1 -152 145 0
1 -166 -130 0
1 166 -190 0
1 166 -199 0
1 -166 -148 0
1 -166 185 0
1 166 -163 0
1 -166 191 0
1 166 200 0
1 -166 201 0
1 163 -130 0
1 -163 166 0
1 163 -199 0
1 163 150 0
1 -163 153 0
1 -163 202 0
1 -163 -200 0
1 -163 -201 0
1 -163 -146 0
1 199 162 0
1 199 -166 0
1 -199 147 0
1 -199 52 0
1 -199 155 0
1 199 203 0
1 199 -172 0
1 199 159 0
1 -199 -152 0
1 199 -157 0
1 199 173 0
1 191 -162 0
1 191 147 0
1 191 -155 0
1 191 -203 0
1 -191 152 0
1 191 -173 0
1 190 -204 0
1 -190 -166 0
1 -190 -205 0
1 -190 157 0
1 206 -204 0
1 -206 -197 0
1 -206 -190 0
1 -206 -155 0
1 -206 -203 0
1 206 163 0
1 162 -197 0
1 162 -199 0
1 162 148 0
1 -162 153 0
1 -162 75 0
1 -162 -191 0
1 -162 201 0
1 159 -150 0
1 159 -148 0
1 -159 -101 0
1 159 193 0
1 -159 -191 0
1 159 146 0
1 159 -86 0
1 -173 148 0
1 173 172 0
1 -173 -191 0
1 -173 -200 0
1 173 -201 0
1 172 150 0
1 -172 -168 0
1 -172 158 0
1 -172 -200 0
1 -148 -201 0
1 -148 172 0
1 148 -159 0
1 148 163 0
1 148 -169 0
1 201 166 0
1 201 -148 0
1 -201 -171 0
1 201 172 0
1 -201 173 0
1 -150 -162 0
1 -150 -70 0
1 -150 -207 0
1 -150 159 0
1 -150 -208 0
1 200 -162 0
1 200 -150 0
1 200 -207 0
1 200 203 0
1 -200 172 0
1 -200 -151 0
1 200 208 0
1 169 -97 0
1 169 158 0
1 169 -96 0
1 -171 -175 0
1 -171 209 0
1 171 -203 0
1 171 -161 0
1 171 -164 0
1 -171 -169 0
1 -210 97 0
1 210 -178 0
1 210 208 0
1 178 -209 0
1 -178 -96 0
1 -158 178 0
1 158 -172 0
1 -158 -210 0
1 158 -173 0
1 -161 -172 0
1 161 -158 0
1 -161 77 0
1 161 -173 0
1 -209 -171 0
1 -209 164 0
1 -209 169 0
1 164 146 0
1 -164 -210 0
1 164 169 0
1 164 173 0
1 187 -147 0
1 187 -183 0
1 187 -182 0
1 -187 124 0
1 187 -136 0
1 187 186 0
1 -187 211 0
1 187 -184 0
1 187 134 0
1 186 -187 0
1 -186 183 0
1 186 212 0
1 186 -124 0
1 186 -152 0
1 -186 211 0
1 -186 -213 0
1 -186 -184 0
1 196 -166 0
1 196 -212 0
1 -196 -214 0
1 -196 202 0
1 -196 215 0
1 -202 212 0
1 -202 -188 0
1 -202 136 0
1 202 -134 0
1 -213 204 0
1 213 -212 0
1 213 193 0
1 -213 -186 0
1 -212 -204 0
1 -212 -187 0
1 212 -118 0
1 -212 186 0
1 211 196 0
1 183 181 0
1 197 130 0
1 197 -214 0
1 197 188 0
1 -197 136 0
1 197 -193 0
1 -197 -213 0
1 193 -214 0
1 193 -213 0
1 -193 -189 0
1 -193 134 0
1 204 -195 0
1 204 -192 0
1 -204 -190 0
1 204 214 0
1 -204 -205 0
1 -204 -194 0
1 -204 -206 0
1 -204 213 0
1 204 189 0
1 204 215 0
1 204 173 0
1 205 206 0
1 -215 196 0
1 -215 -188 0
1 215 193 0
1 188 -197 0
1 -188 196 0
1 188 205 0
1 188 193 0
1 -188 -202 0
1 -188 -208 0
1 189 197 0
1 -189 -196 0
1 189 -214 0
1 -189 125 0
1 214 -196 0
1 -203 -195 0
1 203 -192 0
1 208 195 0
1 208 188 0
1 208 -194 0
1 208 200 0
1 207 192 0
1 207 -178 0
1 207 -198 0
1 -207 194 0
1 -192 130 0
1 192 205 0
1 192 -194 0
1 192 -208 0
1 194 -207 0
1 -194 -205 0
1 194 -185 0
1 -194 208 0
1 195 -205 0
1 -195 -198 0
1 -198 -204 0
1 198 207 0
1 198 -208 0
